InboundTrucks  = 12;
OutboundTrucks = 8;
InboundDoors   = 4;
OutboundDoors  = 4;
ReleaseTime    = [97,49,82,60,52,111,25,25,86,50,7,54];
UnloadTime     = [29,14,21,13,36,25,19,29,31,37,29,30];
LoadTime       = [10,10,5,14,6,6,7,6];
TransferTime   = [| 50,0,0,25,13,0,47,0 | 42,43,0,20,0,25,18,0 | 31,10,0,0,18,46,0,0 | 19,0,0,33,15,12,0,25 | 39,0,0,14,0,0,0,12 | 0,0,0,33,0,42,22,46 | 0,0,16,31,44,0,45,25 | 0,17,0,0,0,0,0,13 | 0,0,31,22,0,0,26,0 | 0,38,45,22,19,0,0,46 | 34,33,33,0,0,0,22,0 | 0,0,0,0,25,50,37,23 |];
